Normalized Data/p10_00_tsplib0_normalized_splitx10_0.vrp
NAME:p10_00_tsplib0_NORMALIZED_splitx10_
BEST_KNOWN: 0
COMMENT: 0
DIMENSION: 595
CAPACITY: 1000
EDGE_WEIGHT_FORMAT: FUNCTION
EDGE_WEIGHT_TYPE: EXACT_2D
NODE_COORD_SECTION
1 0.00000 0.00000
2 -13 -13
3 -13 -13
4 -13 -13
5 -13 -13
6 -13 -13
7 1 -9
8 1 -9
9 1 -9
10 1 -9
11 -14 10
12 10 0
13 10 0
14 20 -15
15 -2 -1
16 -2 -1
17 -2 -1
18 -2 -1
19 -2 -1
20 15 15
21 15 15
22 15 15
23 20 10
24 20 10
25 20 10
26 20 10
27 -9 24
28 -9 24
29 -9 24
30 -9 24
31 -9 24
32 5 31
33 5 31
34 5 31
35 5 31
36 20 30
37 20 30
38 20 30
39 20 30
40 20 30
41 0 16
42 0 16
43 0 16
44 0 16
45 27 0
46 27 0
47 27 22
48 27 22
49 27 -11
50 27 -11
51 27 -11
52 27 -11
53 -14 1
54 -14 1
55 -14 1
56 -14 1
57 -14 1
58 -2 9
59 -26 21
60 -26 21
61 27 13
62 27 13
63 27 13
64 31 -21
65 31 -21
66 9 -22
67 9 -22
68 9 -22
69 9 -22
70 9 -22
71 -9 -22
72 -9 -22
73 -24 -7
74 -24 -7
75 -24 -7
76 -28 8
77 -28 8
78 -28 8
79 -28 8
80 -18 29
81 -18 29
82 -18 29
83 6 11
84 6 11
85 6 11
86 6 11
87 6 11
88 20 -1
89 20 -1
90 20 -1
91 20 -1
92 0 -19
93 0 -19
94 0 -19
95 0 -19
96 0 -19
97 17 -9
98 17 -9
99 8 -9
100 8 -9
101 -4 41
102 -4 41
103 -4 41
104 -13 18
105 -13 18
106 -13 18
107 -13 18
108 -13 18
109 -9 -6
110 -9 -6
111 -9 -6
112 -9 -6
113 15 5
114 15 5
115 15 5
116 15 5
117 15 5
118 20 15
119 19 -25
120 19 -25
121 25 -20
122 25 -20
123 25 -20
124 12 31
125 12 31
126 12 31
127 -5 25
128 -5 25
129 -5 25
130 -5 25
131 -5 15
132 -5 15
133 -5 15
134 -23 -18
135 -23 -18
136 -23 -18
137 -20 -21
138 -19 -16
139 -19 -16
140 -19 -16
141 -19 -16
142 -19 -16
143 -14 13
144 -14 13
145 -14 13
146 -14 13
147 15 -5
148 16 7
149 16 7
150 16 7
151 16 7
152 15 -20
153 15 -20
154 15 -20
155 15 -20
156 15 -20
157 13 -14
158 -23 3
159 -23 3
160 2 17
161 2 17
162 2 17
163 14 14
164 14 14
165 17 29
166 17 29
167 17 29
168 17 29
169 -15 -9
170 -15 -9
171 -15 -9
172 -15 -9
173 5 -5
174 -14 12
175 -14 12
176 -14 12
177 -18 28
178 -18 28
179 -18 28
180 -18 28
181 -18 28
182 -4 27
183 -4 27
184 17 -2
185 16 -14
186 16 -14
187 7 6
188 7 6
189 7 6
190 7 6
191 7 6
192 -4 -3
193 -4 -3
194 -4 -3
195 -4 -3
196 -4 -3
197 -30 -10
198 -30 -10
199 -23 7
200 1 -19
201 17 6
202 17 6
203 17 6
204 -8 -12
205 -18 -2
206 -22 -22
207 -22 -22
208 -22 -22
209 -22 -22
210 22 23
211 22 23
212 22 23
213 22 23
214 22 23
215 27 7
216 27 7
217 27 7
218 27 7
219 7 22
220 7 22
221 7 22
222 7 22
223 -19 22
224 -19 22
225 -19 22
226 -19 22
227 -27 17
228 -28 3
229 -28 3
230 -28 3
231 -28 3
232 -28 3
233 -8 33
234 -8 33
235 -8 33
236 -5 13
237 -5 13
238 -5 13
239 8 32
240 8 32
241 8 32
242 23 13
243 23 13
244 23 13
245 23 -8
246 23 -8
247 23 -8
248 23 -8
249 23 -8
250 2 34
251 3 11
252 3 11
253 11 -25
254 11 -25
255 26 -2
256 26 -2
257 26 -2
258 26 -2
259 27 28
260 27 28
261 27 28
262 27 28
263 28 34
264 28 34
265 28 34
266 -3 -13
267 -3 -13
268 -3 -13
269 -3 -13
270 10 0
271 10 0
272 10 0
273 24 -20
274 24 -20
275 24 -20
276 -30 -29
277 -30 -29
278 -30 -29
279 -25 -18
280 -25 -18
281 -25 -18
282 -25 -18
283 -14 -25
284 -14 -25
285 -30 29
286 -5 -20
287 -5 -20
288 -5 -20
289 -5 -20
290 4 -25
291 -3 4
292 -3 4
293 -10 -3
294 -10 -3
295 -10 -3
296 -10 20
297 -10 20
298 -10 20
299 -10 20
300 13 -7
301 13 -7
302 13 -7
303 13 -7
304 13 -7
305 21 2
306 6 14
307 0 -18
308 0 -18
309 0 -18
310 20 10
311 20 10
312 20 -15
313 20 -15
314 20 -15
315 20 -15
316 20 -15
317 -20 -5
318 -20 -5
319 -20 -5
320 -20 -5
321 -10 -5
322 -15 15
323 -15 15
324 -25 8
325 -25 8
326 -25 8
327 -25 8
328 20 25
329 20 25
330 20 25
331 20 25
332 -5 25
333 -5 25
334 -5 25
335 -5 25
336 -15 30
337 -15 30
338 15 0
339 15 0
340 15 0
341 15 0
342 15 0
343 -5 -10
344 -5 -10
345 -20 -25
346 -5 -30
347 -5 -30
348 -5 -30
349 -5 -30
350 -25 -15
351 -25 -15
352 -25 -15
353 -25 -15
354 -25 -15
355 -30 -5
356 -15 5
357 -15 5
358 -20 25
359 -20 25
360 -20 25
361 -20 25
362 10 30
363 10 30
364 10 30
365 10 30
366 10 -15
367 10 -25
368 10 -25
369 10 -25
370 10 -25
371 10 -25
372 20 -30
373 20 -30
374 20 -30
375 20 -30
376 20 -30
377 30 0
378 30 -15
379 30 -15
380 30 -15
381 10 -5
382 10 -5
383 10 -5
384 10 -5
385 0 5
386 0 5
387 0 5
388 0 5
389 6 2
390 6 2
391 6 2
392 6 2
393 29 7
394 29 7
395 29 7
396 29 7
397 5 25
398 -4 17
399 -4 17
400 -4 17
401 -4 17
402 0 34
403 0 34
404 18 17
405 30 20
406 30 20
407 30 20
408 28 30
409 28 30
410 28 30
411 28 30
412 -33 25
413 -33 25
414 -15 -15
415 -15 -15
416 -15 -15
417 -15 -15
418 -30 -30
419 -30 -30
420 -30 -30
421 -30 -30
422 25 -23
423 25 -23
424 5 -10
425 5 -10
426 5 -10
427 5 -10
428 7 -28
429 7 -28
430 -11 -23
431 -11 -23
432 -12 -32
433 -12 -32
434 -12 -32
435 -24 -21
436 -24 -21
437 -24 -21
438 -24 -21
439 -24 -21
440 -29 3
441 -29 3
442 -29 3
443 -29 3
444 -27 21
445 -27 21
446 -27 21
447 -27 21
448 -22 17
449 -22 17
450 -22 17
451 -22 17
452 -22 17
453 -29 33
454 -29 33
455 12 12
456 12 12
457 14 23
458 -8 8
459 -8 8
460 -8 8
461 -8 8
462 2 -4
463 2 -4
464 2 -4
465 22 -6
466 22 -6
467 22 -6
468 22 -6
469 22 -6
470 28 -12
471 18 -23
472 18 -23
473 18 -23
474 -3 -23
475 -3 -23
476 -3 -23
477 1 -9
478 1 -9
479 1 -9
480 1 -9
481 1 -9
482 -14 -11
483 -14 -11
484 -14 -11
485 -14 -11
486 -14 -11
487 -18 -1
488 -23 -11
489 -23 -11
490 -11 23
491 -11 23
492 -11 23
493 -11 23
494 -11 23
495 -8 34
496 -20 42
497 -20 42
498 -20 42
499 -20 42
500 27 42
501 14 38
502 14 38
503 14 38
504 32 -30
505 32 -30
506 32 -30
507 21 4
508 21 4
509 21 4
510 21 4
511 21 4
512 2 12
513 2 12
514 2 12
515 2 21
516 2 21
517 22 33
518 22 33
519 22 33
520 12 -19
521 12 -19
522 12 -19
523 9 -18
524 9 -18
525 9 -18
526 9 -18
527 11 -22
528 11 -22
529 11 -22
530 11 -22
531 14 -24
532 14 -24
533 14 -24
534 14 -24
535 14 -24
536 14 7
537 14 7
538 18 8
539 18 8
540 18 8
541 26 17
542 22 13
543 22 13
544 21 2
545 21 2
546 21 2
547 20 19
548 20 19
549 20 19
550 20 19
551 -20 12
552 -20 12
553 -20 12
554 -20 12
555 -21 2
556 -24 -4
557 -24 -4
558 -24 -4
559 -19 -13
560 -31 -17
561 -31 -17
562 -31 -17
563 -31 -17
564 -7 -17
565 -7 -17
566 -7 -17
567 -7 -17
568 -9 17
569 -9 17
570 -9 17
571 -9 17
572 -9 0
573 -9 0
574 -9 0
575 -4 32
576 -13 -13
577 -17 -11
578 -17 -11
579 -9 -8
580 -9 -8
581 -9 -8
582 -9 -8
583 -10 -11
584 -13 -8
585 -10 -14
586 -10 -14
587 -16 -14
588 -15 -9
589 -15 -9
590 -15 -9
591 -15 -9
592 -17 -17
593 -17 -17
594 -17 -17
595 -17 -17
DEMAND_SECTION
1 0
2 50
3 10
4 10
5 10
6 10
7 100
8 10
9 10
10 10
11 50
12 100
13 50
14 100
15 50
16 10
17 10
18 10
19 10
20 50
21 10
22 10
23 50
24 10
25 10
26 10
27 100
28 10
29 10
30 10
31 10
32 100
33 10
34 10
35 10
36 100
37 50
38 10
39 10
40 10
41 50
42 10
43 10
44 10
45 50
46 10
47 100
48 50
49 10
50 10
51 10
52 10
53 50
54 10
55 10
56 10
57 10
58 100
59 50
60 10
61 50
62 10
63 10
64 100
65 10
66 100
67 10
68 10
69 10
70 10
71 50
72 10
73 10
74 10
75 10
76 100
77 10
78 10
79 10
80 50
81 10
82 10
83 50
84 10
85 10
86 10
87 10
88 50
89 10
90 10
91 10
92 100
93 10
94 10
95 10
96 10
97 50
98 10
99 100
100 10
101 100
102 10
103 10
104 100
105 10
106 10
107 10
108 10
109 100
110 10
111 10
112 10
113 50
114 10
115 10
116 10
117 10
118 50
119 50
120 10
121 50
122 10
123 10
124 100
125 10
126 10
127 50
128 10
129 10
130 10
131 100
132 50
133 10
134 50
135 10
136 10
137 50
138 50
139 10
140 10
141 10
142 10
143 50
144 10
145 10
146 10
147 100
148 100
149 10
150 10
151 10
152 50
153 10
154 10
155 10
156 10
157 100
158 10
159 10
160 10
161 10
162 10
163 100
164 50
165 50
166 10
167 10
168 10
169 10
170 10
171 10
172 10
173 100
174 50
175 10
176 10
177 50
178 10
179 10
180 10
181 10
182 100
183 10
184 50
185 10
186 10
187 50
188 10
189 10
190 10
191 10
192 100
193 10
194 10
195 10
196 10
197 100
198 10
199 100
200 50
201 50
202 10
203 10
204 10
205 200
206 10
207 10
208 10
209 10
210 100
211 10
212 10
213 10
214 10
215 10
216 10
217 10
218 10
219 10
220 10
221 10
222 10
223 50
224 10
225 10
226 10
227 50
228 100
229 10
230 10
231 10
232 10
233 10
234 10
235 10
236 50
237 10
238 10
239 50
240 10
241 10
242 10
243 10
244 10
245 50
246 10
247 10
248 10
249 10
250 50
251 50
252 10
253 100
254 10
255 100
256 10
257 10
258 10
259 50
260 10
261 10
262 10
263 10
264 10
265 10
266 10
267 10
268 10
269 10
270 50
271 10
272 10
273 50
274 10
275 10
276 10
277 10
278 10
279 100
280 10
281 10
282 10
283 50
284 10
285 50
286 50
287 10
288 10
289 10
290 50
291 10
292 10
293 100
294 10
295 10
296 50
297 10
298 10
299 10
300 50
301 10
302 10
303 10
304 10
305 50
306 50
307 10
308 10
309 10
310 50
311 10
312 50
313 10
314 10
315 10
316 10
317 100
318 10
319 10
320 10
321 10
322 10
323 10
324 10
325 10
326 10
327 10
328 50
329 10
330 10
331 10
332 50
333 10
334 10
335 10
336 50
337 10
338 50
339 10
340 10
341 10
342 10
343 100
344 10
345 100
346 10
347 10
348 10
349 10
350 50
351 10
352 10
353 10
354 10
355 10
356 50
357 10
358 50
359 10
360 10
361 10
362 10
363 10
364 10
365 10
366 50
367 50
368 10
369 10
370 10
371 10
372 100
373 10
374 10
375 10
376 10
377 10
378 10
379 10
380 10
381 50
382 10
383 10
384 10
385 50
386 10
387 10
388 10
389 50
390 10
391 10
392 10
393 10
394 10
395 10
396 10
397 100
398 100
399 10
400 10
401 10
402 100
403 10
404 50
405 50
406 10
407 10
408 10
409 10
410 10
411 10
412 10
413 10
414 10
415 10
416 10
417 10
418 50
419 10
420 10
421 10
422 100
423 50
424 10
425 10
426 10
427 10
428 10
429 10
430 10
431 10
432 10
433 10
434 10
435 50
436 10
437 10
438 10
439 10
440 50
441 10
442 10
443 10
444 100
445 10
446 10
447 10
448 100
449 50
450 10
451 10
452 10
453 100
454 50
455 50
456 10
457 50
458 10
459 10
460 10
461 10
462 50
463 10
464 10
465 50
466 10
467 10
468 10
469 10
470 10
471 10
472 10
473 10
474 10
475 10
476 10
477 50
478 10
479 10
480 10
481 10
482 100
483 10
484 10
485 10
486 10
487 10
488 50
489 10
490 50
491 10
492 10
493 10
494 10
495 50
496 10
497 10
498 10
499 10
500 100
501 100
502 10
503 10
504 100
505 10
506 10
507 100
508 50
509 10
510 10
511 10
512 10
513 10
514 10
515 10
516 10
517 50
518 10
519 10
520 100
521 10
522 10
523 10
524 10
525 10
526 10
527 10
528 10
529 10
530 10
531 50
532 10
533 10
534 10
535 10
536 50
537 10
538 50
539 10
540 10
541 10
542 100
543 10
544 10
545 10
546 10
547 100
548 10
549 10
550 10
551 50
552 10
553 10
554 10
555 50
556 10
557 10
558 10
559 200
560 100
561 50
562 10
563 10
564 100
565 10
566 10
567 10
568 10
569 10
570 10
571 10
572 50
573 10
574 10
575 10
576 10
577 100
578 10
579 100
580 10
581 10
582 10
583 100
584 50
585 50
586 10
587 50
588 10
589 10
590 10
591 10
592 50
593 10
594 10
595 10
DEPOT_SECTION
1
-1
EOF