Normalized Data/p10_00_tsplib0_normalized_splitx10_0.sol
594 -8 7 9 267 268 265 266 285 286 287 288 474 475 473 348 346 347 345 432 431 433 344 420 419 418 417 275 277 276 561 560 562 559 196 197 354 74 72 73 555 557 556 316 318 319 317 -10 550 553 551 552 226 59 58 446 443 444 445 411 412 284 452 453 495 497 498 496 101 102 100 494 233 232 234 129 127 331 333 334 384 386 385 387 -11 12 269 270 271 337 338 339 340 341 89 88 90 87 545 543 304 544 510 507 509 508 506 200 201 202 148 150 149 147 115 112 114 113 116 388 -18 15 16 17 14 191 193 293 292 294 108 109 579 578 342 343 6 476 477 479 478 480 -50 51 48 49 469 377 379 378 120 121 122 274 273 272 421 422 63 64 504 505 503 375 372 371 373 374 118 119 471 470 472 521 520 519 365 -57 237 236 235 132 130 131 397 400 398 399 40 43 42 41 512 513 511 250 251 85 86 83 82 84 186 190 187 188 189 -110 111 581 580 482 483 485 484 481 488 487 351 349 353 352 350 278 279 281 280 135 133 134 437 436 438 435 434 207 205 208 206 136 283 282 430 429 70 71 566 563 565 564 203 -160 161 159 515 514 396 239 238 240 34 33 32 31 249 402 401 574 182 181 126 128 332 28 26 27 30 29 489 491 490 492 493 568 567 569 570 460 459 -172 98 99 156 184 185 312 314 13 315 311 313 96 97 146 301 300 303 299 302 383 381 382 380 -183 465 466 464 468 467 247 244 248 245 246 254 257 255 256 45 44 376 392 393 394 395 214 215 216 217 61 60 62 243 241 242 541 542 309 310 22 23 25 24 538 539 537 536 535 -192 195 194 582 584 585 5 3 4 2 1 575 586 416 413 414 415 593 591 592 594 138 140 141 139 137 558 576 577 170 171 587 588 589 168 590 169 583 320 -291 290 104 107 103 106 105 298 297 295 296 335 336 80 81 79 177 176 180 178 179 357 360 359 358 222 223 224 225 447 448 450 449 451 322 321 145 144 143 142 173 174 175 458 457 -305 220 221 218 219 361 363 362 364 125 123 124 502 500 501 499 264 262 263 410 408 409 407 259 260 261 258 517 518 516 38 35 37 39 36 164 165 167 166 456 -308 306 307 93 91 95 94 92 199 289 428 427 370 368 369 367 366 252 253 531 532 530 534 533 152 151 153 155 154 529 527 528 526 67 68 66 69 65 525 523 522 524 424 425 426 423 462 463 461 -356 355 198 326 324 325 323 75 78 77 76 439 440 442 441 230 229 227 228 231 157 158 554 486 204 52 55 54 56 53 571 573 572 -389 391 390 117 540 405 404 406 46 47 212 211 210 213 209 327 328 329 330 547 546 548 549 403 21 19 20 163 162 454 455 0 





OBJ=
1276.636
BEST_KNOWN=
0.000